1 4 0
h -6 -7 0
h 6 5 0
h -4 8 0
h -5 -6 0
1 -9 0
h 10 -1 0
h 11 1 0
1 -2 0
h 11 -4 0
1 -11 0
h 11 -4 0
1 12 0
h -1 11 0
h 9 -4 0
h 7 6 0
1 10 0
1 -8 0
h 1 -10 0
h -12 10 0
h 7 5 0
h -10 12 0
h 12 6 1 0
1 -1 0
h 2 1 0
1 4 0
